TYPE : Vertex Cover
DIMENSION: 28
EDGE_DATA_SECTION:
0 2
0 12
1 2
1 4
1 6
1 11
1 21
1 23
1 27
2 5
2 8
2 11
2 26
3 19
4 12
4 16
4 22
4 26
5 13
5 21
6 10
6 15
6 17
6 26
7 8
7 14
7 19
7 27
8 10
8 18
8 21
8 24
8 27
9 10
9 21
10 27
11 12
11 15
11 22
11 24
12 18
13 14
13 18
13 22
14 20
15 25
15 27
16 24
17 18
18 23
18 24
19 24
22 27
23 27
-1
VERTEX_DEGREE:
2.0 7.0 6.0 1.0 5.0 3.0 5.0 4.0 7.0 2.0 4.0 6.0 4.0 4.0 3.0 4.0 2.0 2.0 6.0 3.0 1.0 4.0 4.0 3.0 5.0 1.0 3.0 7.0
VERTEX_COVER:
1 2 4 5 6 8 9 12 14 15 18 19 22 24 27
EOF
